;symbolic execution tree
(push)
(assert (le x0 java.lang.Object))
(check-sat)
(push)
(assert (le x1 java.lang.Object))
(check-sat)
(push)
(assert (le x0 java.util.Set))
(check-sat)
(push)
(assert (= x1 java.lang.String))
(check-sat)
(push)
(assert (= x1 java.lang.String))
(check-sat)
(pop)
(push)
(assert (not (= x1 java.lang.String)))
(check-sat)
(pop)
(push)
(assert (le x0 java.util.Set))
(check-sat)
(pop)
(push)
(assert (not (le x0 java.util.Set)))
(check-sat)
(push)
(assert (le x0 java.util.Set))
(check-sat)
(pop)
(push)
(assert (not (le x0 java.util.Set)))
(check-sat)
(pop)
(push)
(assert (le x0 java.util.Set))
(check-sat)
(pop)
(push)
(assert (not (le x0 java.util.Set)))
(check-sat)
(pop)
(pop)
(pop)
(push)
(assert (not (= x1 java.lang.String)))
(check-sat)
(push)
(assert (= x1 java.lang.String))
(check-sat)
(pop)
(push)
(assert (not (= x1 java.lang.String)))
(check-sat)
(pop)
(pop)
(push)
(assert (= x1 java.lang.String))
(check-sat)
(push)
(assert (le x0 java.util.Set))
(check-sat)
(pop)
(push)
(assert (not (le x0 java.util.Set)))
(check-sat)
(pop)
(push)
(assert (= x1 java.lang.String))
(check-sat)
(pop)
(push)
(assert (not (= x1 java.lang.String)))
(check-sat)
(pop)
(push)
(assert (= x1 java.lang.String))
(check-sat)
(push)
(assert (= x1 java.lang.String))
(check-sat)
(push)
(assert (le x0 java.util.Set))
(check-sat)
(pop)
(push)
(assert (not (le x0 java.util.Set)))
(check-sat)
(pop)
(pop)
(push)
(assert (not (= x1 java.lang.String)))
(check-sat)
(pop)
(pop)
(push)
(assert (not (= x1 java.lang.String)))
(check-sat)
(pop)
(push)
(assert (le x0 java.util.Set))
(check-sat)
(push)
(assert (le x0 java.util.Set))
(check-sat)
(pop)
(push)
(assert (not (le x0 java.util.Set)))
(check-sat)
(pop)
(pop)
(push)
(assert (not (le x0 java.util.Set)))
(check-sat)
(push)
(assert (le x0 java.util.Set))
(check-sat)
(pop)
(push)
(assert (not (le x0 java.util.Set)))
(check-sat)
(pop)
(push)
(assert (le x0 java.util.Set))
(check-sat)
(pop)
(push)
(assert (not (le x0 java.util.Set)))
(check-sat)
(push)
(assert (le x0 java.util.Set))
(check-sat)
(pop)
(push)
(assert (not (le x0 java.util.Set)))
(check-sat)
(pop)
(pop)
(pop)
(push)
(assert (le x0 java.util.Set))
(check-sat)
(pop)
(push)
(assert (not (le x0 java.util.Set)))
(check-sat)
(push)
(assert (= x1 java.lang.String))
(check-sat)
(pop)
(push)
(assert (not (= x1 java.lang.String)))
(check-sat)
(pop)
(push)
(assert (le x0 java.util.Set))
(check-sat)
(pop)
(push)
(assert (not (le x0 java.util.Set)))
(check-sat)
(pop)
(push)
(assert (= x1 java.lang.String))
(check-sat)
(push)
(assert (= x1 java.lang.String))
(check-sat)
(pop)
(push)
(assert (not (= x1 java.lang.String)))
(check-sat)
(pop)
(pop)
(push)
(assert (not (= x1 java.lang.String)))
(check-sat)
(pop)
(pop)
(push)
(assert (= x1 java.lang.String))
(check-sat)
(push)
(assert (= x1 java.lang.String))
(check-sat)
(pop)
(push)
(assert (not (= x1 java.lang.String)))
(check-sat)
(pop)
(pop)
(push)
(assert (not (= x1 java.lang.String)))
(check-sat)
(pop)
(pop)
(push)
(assert (not (= x1 java.lang.String)))
(check-sat)
(push)
(assert (le x0 java.util.Set))
(check-sat)
(pop)
(push)
(assert (not (le x0 java.util.Set)))
(check-sat)
(push)
(assert (le x0 java.util.Set))
(check-sat)
(pop)
(push)
(assert (not (le x0 java.util.Set)))
(check-sat)
(pop)
(push)
(assert (= x1 java.lang.String))
(check-sat)
(pop)
(push)
(assert (not (= x1 java.lang.String)))
(check-sat)
(pop)
(push)
(assert (le x0 java.util.Set))
(check-sat)
(pop)
(push)
(assert (not (le x0 java.util.Set)))
(check-sat)
(pop)
(push)
(assert (= x1 java.lang.String))
(check-sat)
(pop)
(push)
(assert (not (= x1 java.lang.String)))
(check-sat)
(pop)
(pop)
(pop)
(push)
(assert (le x0 java.util.Set))
(check-sat)
(push)
(assert (le x0 java.util.Set))
(check-sat)
(push)
(assert (le x0 java.util.Set))
(check-sat)
(pop)
(push)
(assert (not (le x0 java.util.Set)))
(check-sat)
(pop)
(push)
(assert (= x1 java.lang.String))
(check-sat)
(pop)
(push)
(assert (not (= x1 java.lang.String)))
(check-sat)
(pop)
(pop)
(push)
(assert (not (le x0 java.util.Set)))
(check-sat)
(pop)
(push)
(assert (le x0 java.util.Set))
(check-sat)
(pop)
(push)
(assert (not (le x0 java.util.Set)))
(check-sat)
(pop)
(pop)
(push)
(assert (not (le x0 java.util.Set)))
(check-sat)
(pop)
(push)
(assert (le x1 java.util.Set))
(check-sat)
(push)
(assert (le x1 java.util.Set))
(check-sat)
(pop)
(push)
(assert (not (le x1 java.util.Set)))
(check-sat)
(push)
(assert (le x1 java.util.Set))
(check-sat)
(pop)
(push)
(assert (not (le x1 java.util.Set)))
(check-sat)
(push)
(assert (le x0 java.util.Set))
(check-sat)
(pop)
(push)
(assert (not (le x0 java.util.Set)))
(check-sat)
(pop)
(pop)
(pop)
(push)
(assert (le x0 java.util.Set))
(check-sat)
(push)
(assert (le x0 java.util.Set))
(check-sat)
(pop)
(push)
(assert (not (le x0 java.util.Set)))
(check-sat)
(pop)
(pop)
(push)
(assert (not (le x0 java.util.Set)))
(check-sat)
(pop)
(push)
(assert (le x0 java.util.Set))
(check-sat)
(pop)
(push)
(assert (not (le x0 java.util.Set)))
(check-sat)
(pop)
(push)
(assert (le x1 java.util.Set))
(check-sat)
(pop)
(push)
(assert (not (le x1 java.util.Set)))
(check-sat)
(push)
(assert (le x1 java.util.Set))
(check-sat)
(pop)
(push)
(assert (not (le x1 java.util.Set)))
(check-sat)
(pop)
(pop)
(push)
(assert (le x0 java.util.Set))
(check-sat)
(pop)
(push)
(assert (not (le x0 java.util.Set)))
(check-sat)
(push)
(assert (le x1 java.util.Set))
(check-sat)
(pop)
(push)
(assert (not (le x1 java.util.Set)))
(check-sat)
(push)
(assert (le x0 java.util.Set))
(check-sat)
(pop)
(push)
(assert (not (le x0 java.util.Set)))
(check-sat)
(pop)
(pop)
(push)
(assert (le x0 java.util.Set))
(check-sat)
(pop)
(push)
(assert (not (le x0 java.util.Set)))
(check-sat)
(pop)
(pop)
(push)
(assert (le x1 java.util.Set))
(check-sat)
(pop)
(push)
(assert (not (le x1 java.util.Set)))
(check-sat)
(pop)
(push)
(assert (le x1 java.util.Set))
(check-sat)
(push)
(assert (le x1 java.util.Set))
(check-sat)
(pop)
(push)
(assert (not (le x1 java.util.Set)))
(check-sat)
(pop)
(push)
(assert (le x1 java.util.Set))
(check-sat)
(pop)
(push)
(assert (not (le x1 java.util.Set)))
(check-sat)
(pop)
(pop)
(push)
(assert (not (le x1 java.util.Set)))
(check-sat)
(pop)
(pop)
(push)
(assert (not (le x1 java.util.Set)))
(check-sat)
(pop)
(push)
(assert (= x1 java.lang.String))
(check-sat)
(push)
(assert (= x1 java.lang.String))
(check-sat)
(push)
(assert (= x1 java.lang.String))
(check-sat)
(push)
(assert (le x0 java.util.Set))
(check-sat)
(pop)
(push)
(assert (not (le x0 java.util.Set)))
(check-sat)
(pop)
(pop)
(push)
(assert (not (= x1 java.lang.String)))
(check-sat)
(pop)
(push)
(assert (= x1 java.lang.String))
(check-sat)
(pop)
(push)
(assert (not (= x1 java.lang.String)))
(check-sat)
(pop)
(pop)
(push)
(assert (not (= x1 java.lang.String)))
(check-sat)
(pop)
(pop)
(push)
(assert (not (= x1 java.lang.String)))
(check-sat)
(pop)
(push)
(assert (le x1 siena.Tokenizer))
(check-sat)
(push)
(assert (le x0 java.util.Set))
(check-sat)
(push)
(assert (le x1 siena.Tokenizer))
(check-sat)
(pop)
(push)
(assert (not (le x1 siena.Tokenizer)))
(check-sat)
(pop)
(pop)
(push)
(assert (not (le x0 java.util.Set)))
(check-sat)
(pop)
(pop)
(push)
(assert (not (le x1 siena.Tokenizer)))
(check-sat)
(pop)
(pop)
(push)
(assert (not (le x0 java.util.Set)))
(check-sat)
(push)
(assert (= x1 java.lang.String))
(check-sat)
(push)
(assert (le x0 java.util.Set))
(check-sat)
(push)
(assert (= x1 java.lang.String))
(check-sat)
(pop)
(push)
(assert (not (= x1 java.lang.String)))
(check-sat)
(pop)
(pop)
(push)
(assert (not (le x0 java.util.Set)))
(check-sat)
(pop)
(push)
(assert (le x0 java.util.Set))
(check-sat)
(pop)
(push)
(assert (not (le x0 java.util.Set)))
(check-sat)
(pop)
(push)
(assert (= x1 java.lang.String))
(check-sat)
(pop)
(push)
(assert (not (= x1 java.lang.String)))
(check-sat)
(pop)
(pop)
(push)
(assert (not (= x1 java.lang.String)))
(check-sat)
(pop)
(push)
(assert (le x0 java.util.Set))
(check-sat)
(pop)
(push)
(assert (not (le x0 java.util.Set)))
(check-sat)
(pop)
(push)
(assert (= x1 java.lang.String))
(check-sat)
(push)
(assert (= x1 java.lang.String))
(check-sat)
(push)
(assert (= x1 java.lang.String))
(check-sat)
(pop)
(push)
(assert (not (= x1 java.lang.String)))
(check-sat)
(pop)
(pop)
(push)
(assert (not (= x1 java.lang.String)))
(check-sat)
(pop)
(pop)
(push)
(assert (not (= x1 java.lang.String)))
(check-sat)
(push)
(assert (le x0 java.util.Set))
(check-sat)
(pop)
(push)
(assert (not (le x0 java.util.Set)))
(check-sat)
(push)
(assert (= x1 java.lang.String))
(check-sat)
(pop)
(push)
(assert (not (= x1 java.lang.String)))
(check-sat)
(pop)
(pop)
(pop)
(push)
(assert (le x0 java.util.Set))
(check-sat)
(pop)
(push)
(assert (not (le x0 java.util.Set)))
(check-sat)
(pop)
(push)
(assert (le x1 siena.AttributeConstraint))
(check-sat)
(pop)
(push)
(assert (not (le x1 siena.AttributeConstraint)))
(check-sat)
(pop)
(push)
(assert (le x1 siena.AttributeValue))
(check-sat)
(pop)
(push)
(assert (not (le x1 siena.AttributeValue)))
(check-sat)
(push)
(assert (le x0 java.util.Set))
(check-sat)
(pop)
(push)
(assert (not (le x0 java.util.Set)))
(check-sat)
(pop)
(pop)
(pop)
